(set-logic LIA)
(declare-var x Int)
(declare-var y Int)
(declare-var x! Int)
(declare-var y! Int)
(synth-fun inv-f((parameter0 Int)(parameter1 Int))Bool) 
(constraint (=> (and (= x 0) (= y 0) )(inv-f x y )))
(constraint (=> (and (inv-f x y ) (or (and (= x! (+ x 1 )) (= y! (+ y 100 )) ) (or (and (>= x 4) (and (= x! (+ x 1 )) (= y! (+ y 1 )) ) ) (and (< x 0) (and (= x! x) (= y! (- y 1)) ) ) ) ) )(inv-f x! y! )))
(constraint (=> (inv-f x y )(or (< x 4) (> y 2) )))
(check-synth)

